letting numberCities be 48
letting distances be function (
(1,1) --> 0,
(1,2) --> 273,
(1,3) --> 1272,
(1,4) --> 744,
(1,5) --> 1138,
(1,6) --> 1972,
(1,7) --> 1580,
(1,8) --> 1878,
(1,9) --> 1539,
(1,10) --> 1457,
(1,11) --> 429,
(1,12) --> 1129,
(1,13) --> 1251,
(1,14) --> 1421,
(1,15) --> 588,
(1,16) --> 334,
(1,17) --> 837,
(1,18) --> 1364,
(1,19) --> 229,
(1,20) --> 961,
(1,21) --> 754,
(1,22) --> 1169,
(1,23) --> 1488,
(1,24) --> 720,
(1,25) --> 1280,
(1,26) --> 816,
(1,27) --> 664,
(1,28) --> 1178,
(1,29) --> 939,
(1,30) --> 1698,
(1,31) --> 983,
(1,32) --> 1119,
(1,33) --> 1029,
(1,34) --> 1815,
(1,35) --> 721,
(1,36) --> 1753,
(1,37) --> 330,
(1,38) --> 1499,
(1,39) --> 1107,
(1,40) --> 1576,
(1,41) --> 942,
(1,42) --> 484,
(1,43) --> 617,
(1,44) --> 896,
(1,45) --> 1184,
(1,46) --> 1030,
(1,47) --> 1718,
(1,48) --> 604,
(2,1) --> 273,
(2,2) --> 0,
(2,3) --> 999,
(2,4) --> 809,
(2,5) --> 866,
(2,6) --> 1722,
(2,7) --> 1338,
(2,8) --> 1640,
(2,9) --> 1226,
(2,10) --> 1185,
(2,11) --> 440,
(2,12) --> 894,
(2,13) --> 992,
(2,14) --> 1173,
(2,15) --> 334,
(2,16) --> 358,
(2,17) --> 626,
(2,18) --> 1124,
(2,19) --> 358,
(2,20) --> 847,
(2,21) --> 533,
(2,22) --> 915,
(2,23) --> 1219,
(2,24) --> 481,
(2,25) --> 1009,
(2,26) --> 543,
(2,27) --> 937,
(2,28) --> 915,
(2,29) --> 667,
(2,30) --> 1441,
(2,31) --> 812,
(2,32) --> 848,
(2,33) --> 776,
(2,34) --> 1560,
(2,35) --> 526,
(2,36) --> 1494,
(2,37) --> 598,
(2,38) --> 1244,
(2,39) --> 1304,
(2,40) --> 1306,
(2,41) --> 685,
(2,42) --> 668,
(2,43) --> 444,
(2,44) --> 1157,
(2,45) --> 1359,
(2,46) --> 1176,
(2,47) --> 1475,
(2,48) --> 335,
(3,1) --> 1272,
(3,2) --> 999,
(3,3) --> 0,
(3,4) --> 1519,
(3,5) --> 140,
(3,6) --> 937,
(3,7) --> 697,
(3,8) --> 951,
(3,9) --> 267,
(3,10) --> 227,
(3,11) --> 1229,
(3,12) --> 587,
(3,13) --> 369,
(3,14) --> 554,
(3,15) --> 721,
(3,16) --> 1212,
(3,17) --> 739,
(3,18) --> 596,
(3,19) --> 1291,
(3,20) --> 1114,
(3,21) --> 701,
(3,22) --> 426,
(3,23) --> 285,
(3,24) --> 676,
(3,25) --> 155,
(3,26) --> 456,
(3,27) --> 1936,
(3,28) --> 319,
(3,29) --> 337,
(3,30) --> 604,
(3,31) --> 907,
(3,32) --> 214,
(3,33) --> 424,
(3,34) --> 748,
(3,35) --> 817,
(3,36) --> 666,
(3,37) --> 1592,
(3,38) --> 521,
(3,39) --> 2172,
(3,40) --> 356,
(3,41) --> 467,
(3,42) --> 1583,
(3,43) --> 882,
(3,44) --> 2139,
(3,45) --> 2182,
(3,46) --> 1961,
(3,47) --> 781,
(3,48) --> 678,
(4,1) --> 744,
(4,2) --> 809,
(4,3) --> 1519,
(4,4) --> 0,
(4,5) --> 1425,
(4,6) --> 1861,
(4,7) --> 1473,
(4,8) --> 1713,
(4,9) --> 1761,
(4,10) --> 1617,
(4,11) --> 370,
(4,12) --> 1073,
(4,13) --> 1304,
(4,14) --> 1369,
(4,15) --> 1092,
(4,16) --> 453,
(4,17) --> 798,
(4,18) --> 1283,
(4,19) --> 973,
(4,20) --> 565,
(4,21) --> 1315,
(4,22) --> 1204,
(4,23) --> 1796,
(4,24) --> 846,
(4,25) --> 1447,
(4,26) --> 1143,
(4,27) --> 959,
(4,28) --> 1275,
(4,29) --> 1213,
(4,30) --> 2085,
(4,31) --> 742,
(4,32) --> 1309,
(4,33) --> 1479,
(4,34) --> 1760,
(4,35) --> 703,
(4,36) --> 1727,
(4,37) --> 872,
(4,38) --> 1479,
(4,39) --> 686,
(4,40) --> 1698,
(4,41) --> 1057,
(4,42) --> 387,
(4,43) --> 1252,
(4,44) --> 904,
(4,45) --> 668,
(4,46) --> 443,
(4,47) --> 1600,
(4,48) --> 930,
(5,1) --> 1138,
(5,2) --> 866,
(5,3) --> 140,
(5,4) --> 1425,
(5,5) --> 0,
(5,6) --> 1052,
(5,7) --> 776,
(5,8) --> 1049,
(5,9) --> 402,
(5,10) --> 361,
(5,11) --> 1119,
(5,12) --> 578,
(5,13) --> 406,
(5,14) --> 618,
(5,15) --> 581,
(5,16) --> 1095,
(5,17) --> 670,
(5,18) --> 641,
(5,19) --> 1152,
(5,20) --> 1060,
(5,21) --> 567,
(5,22) --> 443,
(5,23) --> 374,
(5,24) --> 579,
(5,25) --> 235,
(5,26) --> 325,
(5,27) --> 1802,
(5,28) --> 331,
(5,29) --> 217,
(5,30) --> 665,
(5,31) --> 862,
(5,32) --> 182,
(5,33) --> 312,
(5,34) --> 864,
(5,35) --> 732,
(5,36) --> 783,
(5,37) --> 1456,
(5,38) --> 608,
(5,39) --> 2066,
(5,40) --> 491,
(5,41) --> 400,
(5,42) --> 1466,
(5,43) --> 744,
(5,44) --> 2013,
(5,45) --> 2082,
(5,46) --> 1865,
(5,47) --> 875,
(5,48) --> 552,
(6,1) --> 1972,
(6,2) --> 1722,
(6,3) --> 937,
(6,4) --> 1861,
(6,5) --> 1052,
(6,6) --> 0,
(6,7) --> 400,
(6,8) --> 182,
(6,9) --> 820,
(6,10) --> 721,
(6,11) --> 1735,
(6,12) --> 851,
(6,13) --> 740,
(6,14) --> 551,
(6,15) --> 1551,
(6,16) --> 1769,
(6,17) --> 1159,
(6,18) --> 613,
(6,19) --> 2072,
(6,20) --> 1300,
(6,21) --> 1605,
(6,22) --> 807,
(6,23) --> 1017,
(6,24) --> 1251,
(6,25) --> 818,
(6,26) --> 1259,
(6,27) --> 2596,
(6,28) --> 826,
(6,29) --> 1137,
(6,30) --> 1255,
(6,31) --> 1123,
(6,32) --> 943,
(6,33) --> 1359,
(6,34) --> 188,
(6,35) --> 1282,
(6,36) --> 271,
(6,37) --> 2300,
(6,38) --> 483,
(6,39) --> 2540,
(6,40) --> 609,
(6,41) --> 1038,
(6,42) --> 2099,
(6,43) --> 1776,
(6,44) --> 2699,
(6,45) --> 2493,
(6,46) --> 2266,
(6,47) --> 264,
(6,48) --> 1398,
(7,1) --> 1580,
(7,2) --> 1338,
(7,3) --> 697,
(7,4) --> 1473,
(7,5) --> 776,
(7,6) --> 400,
(7,7) --> 0,
(7,8) --> 304,
(7,9) --> 699,
(7,10) --> 538,
(7,11) --> 1335,
(7,12) --> 454,
(7,13) --> 393,
(7,14) --> 173,
(7,15) --> 1198,
(7,16) --> 1370,
(7,17) --> 760,
(7,18) --> 216,
(7,19) --> 1692,
(7,20) --> 919,
(7,21) --> 1286,
(7,22) --> 435,
(7,23) --> 879,
(7,24) --> 861,
(7,25) --> 548,
(7,26) --> 913,
(7,27) --> 2198,
(7,28) --> 483,
(7,29) --> 803,
(7,30) --> 1181,
(7,31) --> 731,
(7,32) --> 627,
(7,33) --> 1086,
(7,34) --> 292,
(7,35) --> 883,
(7,36) --> 279,
(7,37) --> 1906,
(7,38) --> 178,
(7,39) --> 2156,
(7,40) --> 490,
(7,41) --> 662,
(7,42) --> 1699,
(7,43) --> 1430,
(7,44) --> 2300,
(7,45) --> 2117,
(7,46) --> 1888,
(7,47) --> 138,
(7,48) --> 1023,
(8,1) --> 1878,
(8,2) --> 1640,
(8,3) --> 951,
(8,4) --> 1713,
(8,5) --> 1049,
(8,6) --> 182,
(8,7) --> 304,
(8,8) --> 0,
(8,9) --> 884,
(8,10) --> 755,
(8,11) --> 1612,
(8,12) --> 749,
(8,13) --> 690,
(8,14) --> 476,
(8,15) --> 1501,
(8,16) --> 1654,
(8,17) --> 1049,
(8,18) --> 516,
(8,19) --> 1995,
(8,20) --> 1149,
(8,21) --> 1580,
(8,22) --> 739,
(8,23) --> 1079,
(8,24) --> 1161,
(8,25) --> 815,
(8,26) --> 1214,
(8,27) --> 2485,
(8,28) --> 780,
(8,29) --> 1100,
(8,30) --> 1347,
(8,31) --> 985,
(8,32) --> 916,
(8,33) --> 1361,
(8,34) --> 260,
(8,35) --> 1171,
(8,36) --> 328,
(8,37) --> 2202,
(8,38) --> 445,
(8,39) --> 2385,
(8,40) --> 665,
(8,41) --> 966,
(8,42) --> 1969,
(8,43) --> 1729,
(8,44) --> 2568,
(8,45) --> 2333,
(8,46) --> 2108,
(8,47) --> 177,
(8,48) --> 1327,
(9,1) --> 1539,
(9,2) --> 1226,
(9,3) --> 267,
(9,4) --> 1761,
(9,5) --> 402,
(9,6) --> 820,
(9,7) --> 699,
(9,8) --> 884,
(9,9) --> 0,
(9,10) --> 177,
(9,11) --> 1486,
(9,12) --> 757,
(9,13) --> 506,
(9,14) --> 609,
(9,15) --> 981,
(9,16) --> 1474,
(9,17) --> 967,
(9,18) --> 681,
(9,19) --> 1552,
(9,20) --> 1317,
(9,21) --> 936,
(9,22) --> 594,
(9,23) --> 197,
(9,24) --> 928,
(9,25) --> 316,
(9,26) --> 723,
(9,27) --> 2203,
(9,28) --> 500,
(9,29) --> 604,
(9,30) --> 482,
(9,31) --> 1104,
(9,32) --> 455,
(9,33) --> 630,
(9,34) --> 641,
(9,35) --> 1058,
(9,36) --> 562,
(9,37) --> 1857,
(9,38) --> 528,
(9,39) --> 2425,
(9,40) --> 220,
(9,41) --> 704,
(9,42) --> 1845,
(9,43) --> 1122,
(9,44) --> 2405,
(9,45) --> 2428,
(9,46) --> 2204,
(9,47) --> 738,
(9,48) --> 945,
(10,1) --> 1457,
(10,2) --> 1185,
(10,3) --> 227,
(10,4) --> 1617,
(10,5) --> 361,
(10,6) --> 721,
(10,7) --> 538,
(10,8) --> 755,
(10,9) --> 177,
(10,10) --> 0,
(10,11) --> 1362,
(10,12) --> 587,
(10,13) --> 335,
(10,14) --> 435,
(10,15) --> 930,
(10,16) --> 1358,
(10,17) --> 819,
(10,18) --> 504,
(10,19) --> 1496,
(10,20) --> 1153,
(10,21) --> 927,
(10,22) --> 428,
(10,23) --> 341,
(10,24) --> 803,
(10,25) --> 180,
(10,26) --> 649,
(10,27) --> 2119,
(10,28) --> 343,
(10,29) --> 521,
(10,30) --> 652,
(10,31) --> 939,
(10,32) --> 340,
(10,33) --> 649,
(10,34) --> 533,
(10,35) --> 918,
(10,36) --> 451,
(10,37) --> 1783,
(10,38) --> 362,
(10,39) --> 2290,
(10,40) --> 130,
(10,41) --> 568,
(10,42) --> 1727,
(10,43) --> 1105,
(10,44) --> 2301,
(10,45) --> 2285,
(10,46) --> 2059,
(10,47) --> 595,
(10,48) --> 853,
(11,1) --> 429,
(11,2) --> 440,
(11,3) --> 1229,
(11,4) --> 370,
(11,5) --> 1119,
(11,6) --> 1735,
(11,7) --> 1335,
(11,8) --> 1612,
(11,9) --> 1486,
(11,10) --> 1362,
(11,11) --> 0,
(11,12) --> 891,
(11,13) --> 1082,
(11,14) --> 1199,
(11,15) --> 726,
(11,16) --> 96,
(11,17) --> 583,
(11,18) --> 1125,
(11,19) --> 653,
(11,20) --> 563,
(11,21) --> 947,
(11,22) --> 986,
(11,23) --> 1493,
(11,24) --> 560,
(11,25) --> 1183,
(11,26) --> 813,
(11,27) --> 882,
(11,28) --> 1033,
(11,29) --> 902,
(11,30) --> 1763,
(11,31) --> 642,
(11,32) --> 1032,
(11,33) --> 1131,
(11,34) --> 1604,
(11,35) --> 463,
(11,36) --> 1556,
(11,37) --> 663,
(11,38) --> 1298,
(11,39) --> 947,
(11,40) --> 1461,
(11,41) --> 795,
(11,42) --> 371,
(11,43) --> 882,
(11,44) --> 967,
(11,45) --> 973,
(11,46) --> 768,
(11,47) --> 1472,
(11,48) --> 588,
(12,1) --> 1129,
(12,2) --> 894,
(12,3) --> 587,
(12,4) --> 1073,
(12,5) --> 578,
(12,6) --> 851,
(12,7) --> 454,
(12,8) --> 749,
(12,9) --> 757,
(12,10) --> 587,
(12,11) --> 891,
(12,12) --> 0,
(12,13) --> 252,
(12,14) --> 308,
(12,15) --> 803,
(12,16) --> 920,
(12,17) --> 309,
(12,18) --> 238,
(12,19) --> 1252,
(12,20) --> 569,
(12,21) --> 940,
(12,22) --> 165,
(12,23) --> 863,
(12,24) --> 414,
(12,25) --> 454,
(12,26) --> 552,
(12,27) --> 1745,
(12,28) --> 269,
(12,29) --> 482,
(12,30) --> 1188,
(12,31) --> 355,
(12,32) --> 397,
(12,33) --> 833,
(12,34) --> 713,
(12,35) --> 432,
(12,36) --> 666,
(12,37) --> 1453,
(12,38) --> 410,
(12,39) --> 1758,
(12,40) --> 642,
(12,41) --> 262,
(12,42) --> 1260,
(12,43) --> 1051,
(12,44) --> 1858,
(12,45) --> 1737,
(12,46) --> 1508,
(12,47) --> 592,
(12,48) --> 598,
(13,1) --> 1251,
(13,2) --> 992,
(13,3) --> 369,
(13,4) --> 1304,
(13,5) --> 406,
(13,6) --> 740,
(13,7) --> 393,
(13,8) --> 690,
(13,9) --> 506,
(13,10) --> 335,
(13,11) --> 1082,
(13,12) --> 252,
(13,13) --> 0,
(13,14) --> 222,
(13,15) --> 814,
(13,16) --> 1094,
(13,17) --> 510,
(13,18) --> 235,
(13,19) --> 1335,
(13,20) --> 820,
(13,21) --> 892,
(13,22) --> 100,
(13,23) --> 626,
(13,24) --> 541,
(13,25) --> 219,
(13,26) --> 524,
(13,27) --> 1897,
(13,28) --> 90,
(13,29) --> 410,
(13,30) --> 952,
(13,31) --> 805,
(13,32) --> 238,
(13,33) --> 706,
(13,34) --> 570,
(13,35) --> 622,
(13,36) --> 503,
(13,37) --> 1581,
(13,38) --> 257,
(13,39) --> 1985,
(13,40) --> 396,
(13,41) --> 309,
(13,42) --> 1453,
(13,43) --> 1039,
(13,44) --> 2043,
(13,45) --> 1972,
(13,46) --> 1744,
(13,47) --> 514,
(13,48) --> 661,
(14,1) --> 1421,
(14,2) --> 1173,
(14,3) --> 554,
(14,4) --> 1369,
(14,5) --> 618,
(14,6) --> 551,
(14,7) --> 173,
(14,8) --> 476,
(14,9) --> 609,
(14,10) --> 435,
(14,11) --> 1199,
(14,12) --> 308,
(14,13) --> 222,
(14,14) --> 0,
(14,15) --> 1025,
(14,16) --> 1227,
(14,17) --> 617,
(14,18) --> 90,
(14,19) --> 1525,
(14,20) --> 835,
(14,21) --> 1114,
(14,22) --> 263,
(14,23) --> 770,
(14,24) --> 700,
(14,25) --> 400,
(14,26) --> 740,
(14,27) --> 2049,
(14,28) --> 311,
(14,29) --> 630,
(14,30) --> 1087,
(14,31) --> 630,
(14,32) --> 459,
(14,33) --> 924,
(14,34) --> 405,
(14,35) --> 739,
(14,36) --> 360,
(14,37) --> 1749,
(14,38) --> 115,
(14,39) --> 2055,
(14,40) --> 428,
(14,41) --> 492,
(14,42) --> 1568,
(14,43) --> 1256,
(14,44) --> 2166,
(14,45) --> 2026,
(14,46) --> 1796,
(14,47) --> 303,
(14,48) --> 853,
(15,1) --> 588,
(15,2) --> 334,
(15,3) --> 721,
(15,4) --> 1092,
(15,5) --> 581,
(15,6) --> 1551,
(15,7) --> 1198,
(15,8) --> 1501,
(15,9) --> 981,
(15,10) --> 930,
(15,11) --> 726,
(15,12) --> 803,
(15,13) --> 814,
(15,14) --> 1025,
(15,15) --> 0,
(15,16) --> 663,
(15,17) --> 632,
(15,18) --> 999,
(15,19) --> 572,
(15,20) --> 972,
(15,21) --> 225,
(15,22) --> 763,
(15,23) --> 908,
(15,24) --> 451,
(15,25) --> 767,
(15,26) --> 293,
(15,27) --> 1240,
(15,28) --> 726,
(15,29) --> 420,
(15,30) --> 1111,
(15,31) --> 862,
(15,32) --> 617,
(15,33) --> 443,
(15,34) --> 1374,
(15,35) --> 586,
(15,36) --> 1299,
(15,37) --> 887,
(15,38) --> 1070,
(15,39) --> 1633,
(15,40) --> 1057,
(15,41) --> 547,
(15,42) --> 999,
(15,43) --> 252,
(15,44) --> 1483,
(15,45) --> 1681,
(15,46) --> 1489,
(15,47) --> 1326,
(15,48) --> 236,
(16,1) --> 334,
(16,2) --> 358,
(16,3) --> 1212,
(16,4) --> 453,
(16,5) --> 1095,
(16,6) --> 1769,
(16,7) --> 1370,
(16,8) --> 1654,
(16,9) --> 1474,
(16,10) --> 1358,
(16,11) --> 96,
(16,12) --> 920,
(16,13) --> 1094,
(16,14) --> 1227,
(16,15) --> 663,
(16,16) --> 0,
(16,17) --> 610,
(16,18) --> 1156,
(16,19) --> 557,
(16,20) --> 642,
(16,21) --> 879,
(16,22) --> 1000,
(16,23) --> 1467,
(16,24) --> 558,
(16,25) --> 1178,
(16,26) --> 780,
(16,27) --> 831,
(16,28) --> 1038,
(16,29) --> 879,
(16,30) --> 1726,
(16,31) --> 700,
(16,32) --> 1023,
(16,33) --> 1082,
(16,34) --> 1631,
(16,35) --> 488,
(16,36) --> 1579,
(16,37) --> 586,
(16,38) --> 1320,
(16,39) --> 982,
(16,40) --> 1463,
(16,41) --> 796,
(16,42) --> 371,
(16,43) --> 802,
(16,44) --> 940,
(16,45) --> 1021,
(16,46) --> 826,
(16,47) --> 1508,
(16,48) --> 550,
(17,1) --> 837,
(17,2) --> 626,
(17,3) --> 739,
(17,4) --> 798,
(17,5) --> 670,
(17,6) --> 1159,
(17,7) --> 760,
(17,8) --> 1049,
(17,9) --> 967,
(17,10) --> 819,
(17,11) --> 583,
(17,12) --> 309,
(17,13) --> 510,
(17,14) --> 617,
(17,15) --> 632,
(17,16) --> 610,
(17,17) --> 0,
(17,18) --> 546,
(17,19) --> 983,
(17,20) --> 397,
(17,21) --> 821,
(17,22) --> 411,
(17,23) --> 1023,
(17,24) --> 180,
(17,25) --> 651,
(17,26) --> 478,
(17,27) --> 1438,
(17,28) --> 476,
(17,29) --> 485,
(17,30) --> 1333,
(17,31) --> 235,
(17,32) --> 525,
(17,33) --> 827,
(17,34) --> 1022,
(17,35) --> 123,
(17,36) --> 973,
(17,37) --> 1155,
(17,38) --> 715,
(17,39) --> 1475,
(17,40) --> 902,
(17,41) --> 273,
(17,42) --> 953,
(17,43) --> 882,
(17,44) --> 1550,
(17,45) --> 1467,
(17,46) --> 1240,
(17,47) --> 898,
(17,48) --> 396,
(18,1) --> 1364,
(18,2) --> 1124,
(18,3) --> 596,
(18,4) --> 1283,
(18,5) --> 641,
(18,6) --> 613,
(18,7) --> 216,
(18,8) --> 516,
(18,9) --> 681,
(18,10) --> 504,
(18,11) --> 1125,
(18,12) --> 238,
(18,13) --> 235,
(18,14) --> 90,
(18,15) --> 999,
(18,16) --> 1156,
(18,17) --> 546,
(18,18) --> 0,
(18,19) --> 1479,
(18,20) --> 745,
(18,21) --> 1105,
(18,22) --> 240,
(18,23) --> 831,
(18,24) --> 645,
(18,25) --> 442,
(18,26) --> 723,
(18,27) --> 1983,
(18,28) --> 316,
(18,29) --> 623,
(18,30) --> 1152,
(18,31) --> 543,
(18,32) --> 470,
(18,33) --> 939,
(18,34) --> 482,
(18,35) --> 669,
(18,36) --> 443,
(18,37) --> 1690,
(18,38) --> 205,
(18,39) --> 1969,
(18,40) --> 510,
(18,41) --> 455,
(18,42) --> 1492,
(18,43) --> 1238,
(18,44) --> 2091,
(18,45) --> 1938,
(18,46) --> 1709,
(18,47) --> 354,
(18,48) --> 813,
(19,1) --> 229,
(19,2) --> 358,
(19,3) --> 1291,
(19,4) --> 973,
(19,5) --> 1152,
(19,6) --> 2072,
(19,7) --> 1692,
(19,8) --> 1995,
(19,9) --> 1552,
(19,10) --> 1496,
(19,11) --> 653,
(19,12) --> 1252,
(19,13) --> 1335,
(19,14) --> 1525,
(19,15) --> 572,
(19,16) --> 557,
(19,17) --> 983,
(19,18) --> 1479,
(19,19) --> 0,
(19,20) --> 1163,
(19,21) --> 676,
(19,22) --> 1264,
(19,23) --> 1473,
(19,24) --> 839,
(19,25) --> 1326,
(19,26) --> 847,
(19,27) --> 801,
(19,28) --> 1254,
(19,29) --> 976,
(19,30) --> 1643,
(19,31) --> 1157,
(19,32) --> 1169,
(19,33) --> 983,
(19,34) --> 1905,
(19,35) --> 878,
(19,36) --> 1836,
(19,37) --> 346,
(19,38) --> 1590,
(19,39) --> 1286,
(19,40) --> 1621,
(19,41) --> 1034,
(19,42) --> 689,
(19,43) --> 503,
(19,44) --> 995,
(19,45) --> 1376,
(19,46) --> 1239,
(19,47) --> 1828,
(19,48) --> 674,
(20,1) --> 961,
(20,2) --> 847,
(20,3) --> 1114,
(20,4) --> 565,
(20,5) --> 1060,
(20,6) --> 1300,
(20,7) --> 919,
(20,8) --> 1149,
(20,9) --> 1317,
(20,10) --> 1153,
(20,11) --> 563,
(20,12) --> 569,
(20,13) --> 820,
(20,14) --> 835,
(20,15) --> 972,
(20,16) --> 642,
(20,17) --> 397,
(20,18) --> 745,
(20,19) --> 1163,
(20,20) --> 0,
(20,21) --> 1183,
(20,22) --> 725,
(20,23) --> 1399,
(20,24) --> 549,
(20,25) --> 1004,
(20,26) --> 869,
(20,27) --> 1427,
(20,28) --> 818,
(20,29) --> 882,
(20,30) --> 1716,
(20,31) --> 214,
(20,32) --> 902,
(20,33) --> 1222,
(20,34) --> 1210,
(20,35) --> 390,
(20,36) --> 1184,
(20,37) --> 1225,
(20,38) --> 949,
(20,39) --> 1239,
(20,40) --> 1210,
(20,41) --> 660,
(20,42) --> 863,
(20,43) --> 1207,
(20,44) --> 1446,
(20,45) --> 1197,
(20,46) --> 969,
(20,47) --> 1042,
(20,48) --> 741,
(21,1) --> 754,
(21,2) --> 533,
(21,3) --> 701,
(21,4) --> 1315,
(21,5) --> 567,
(21,6) --> 1605,
(21,7) --> 1286,
(21,8) --> 1580,
(21,9) --> 936,
(21,10) --> 927,
(21,11) --> 947,
(21,12) --> 940,
(21,13) --> 892,
(21,14) --> 1114,
(21,15) --> 225,
(21,16) --> 879,
(21,17) --> 821,
(21,18) --> 1105,
(21,19) --> 676,
(21,20) --> 1183,
(21,21) --> 0,
(21,22) --> 865,
(21,23) --> 821,
(21,24) --> 644,
(21,25) --> 790,
(21,26) --> 388,
(21,27) --> 1374,
(21,28) --> 803,
(21,29) --> 484,
(21,30) --> 968,
(21,31) --> 1056,
(21,32) --> 655,
(21,33) --> 318,
(21,34) --> 1420,
(21,35) --> 794,
(21,36) --> 1341,
(21,37) --> 1017,
(21,38) --> 1137,
(21,39) --> 1836,
(21,40) --> 1056,
(21,41) --> 679,
(21,42) --> 1200,
(21,43) --> 189,
(21,44) --> 1645,
(21,45) --> 1891,
(21,46) --> 1704,
(21,47) --> 1403,
(21,48) --> 442,
(22,1) --> 1169,
(22,2) --> 915,
(22,3) --> 426,
(22,4) --> 1204,
(22,5) --> 443,
(22,6) --> 807,
(22,7) --> 435,
(22,8) --> 739,
(22,9) --> 594,
(22,10) --> 428,
(22,11) --> 986,
(22,12) --> 165,
(22,13) --> 100,
(22,14) --> 263,
(22,15) --> 763,
(22,16) --> 1000,
(22,17) --> 411,
(22,18) --> 240,
(22,19) --> 1264,
(22,20) --> 725,
(22,21) --> 865,
(22,22) --> 0,
(22,23) --> 699,
(22,24) --> 453,
(22,25) --> 290,
(22,26) --> 483,
(22,27) --> 1809,
(22,28) --> 107,
(22,29) --> 384,
(22,30) --> 1024,
(22,31) --> 511,
(22,32) --> 251,
(22,33) --> 712,
(22,34) --> 646,
(22,35) --> 525,
(22,36) --> 585,
(22,37) --> 1499,
(22,38) --> 330,
(22,39) --> 1885,
(22,40) --> 495,
(22,41) --> 231,
(22,42) --> 1356,
(22,43) --> 999,
(22,44) --> 1949,
(22,45) --> 1872,
(22,46) --> 1644,
(22,47) --> 567,
(22,48) --> 591,
(23,1) --> 1488,
(23,2) --> 1219,
(23,3) --> 285,
(23,4) --> 1796,
(23,5) --> 374,
(23,6) --> 1017,
(23,7) --> 879,
(23,8) --> 1079,
(23,9) --> 197,
(23,10) --> 341,
(23,11) --> 1493,
(23,12) --> 863,
(23,13) --> 626,
(23,14) --> 770,
(23,15) --> 908,
(23,16) --> 1467,
(23,17) --> 1023,
(23,18) --> 831,
(23,19) --> 1473,
(23,20) --> 1399,
(23,21) --> 821,
(23,22) --> 699,
(23,23) --> 0,
(23,24) --> 950,
(23,25) --> 410,
(23,26) --> 690,
(23,27) --> 2147,
(23,28) --> 594,
(23,29) --> 590,
(23,30) --> 326,
(23,31) --> 1191,
(23,32) --> 499,
(23,33) --> 504,
(23,34) --> 838,
(23,35) --> 1098,
(23,36) --> 758,
(23,37) --> 1794,
(23,38) --> 703,
(23,39) --> 2439,
(23,40) --> 414,
(23,41) --> 751,
(23,42) --> 1837,
(23,43) --> 1011,
(23,44) --> 2374,
(23,45) --> 2455,
(23,46) --> 2237,
(23,47) --> 928,
(23,48) --> 921,
(24,1) --> 720,
(24,2) --> 481,
(24,3) --> 676,
(24,4) --> 846,
(24,5) --> 579,
(24,6) --> 1251,
(24,7) --> 861,
(24,8) --> 1161,
(24,9) --> 928,
(24,10) --> 803,
(24,11) --> 560,
(24,12) --> 414,
(24,13) --> 541,
(24,14) --> 700,
(24,15) --> 451,
(24,16) --> 558,
(24,17) --> 180,
(24,18) --> 645,
(24,19) --> 839,
(24,20) --> 549,
(24,21) --> 644,
(24,22) --> 453,
(24,23) --> 950,
(24,24) --> 0,
(24,25) --> 624,
(24,26) --> 325,
(24,27) --> 1356,
(24,28) --> 480,
(24,29) --> 369,
(24,30) --> 1241,
(24,31) --> 413,
(24,32) --> 473,
(24,33) --> 680,
(24,34) --> 1097,
(24,35) --> 166,
(24,36) --> 1038,
(24,37) --> 1049,
(24,38) --> 781,
(24,39) --> 1497,
(24,40) --> 905,
(24,41) --> 238,
(24,42) --> 925,
(24,43) --> 702,
(24,44) --> 1506,
(24,45) --> 1506,
(24,46) --> 1287,
(24,47) --> 998,
(24,48) --> 216,
(25,1) --> 1280,
(25,2) --> 1009,
(25,3) --> 155,
(25,4) --> 1447,
(25,5) --> 235,
(25,6) --> 818,
(25,7) --> 548,
(25,8) --> 815,
(25,9) --> 316,
(25,10) --> 180,
(25,11) --> 1183,
(25,12) --> 454,
(25,13) --> 219,
(25,14) --> 400,
(25,15) --> 767,
(25,16) --> 1178,
(25,17) --> 651,
(25,18) --> 442,
(25,19) --> 1326,
(25,20) --> 1004,
(25,21) --> 790,
(25,22) --> 290,
(25,23) --> 410,
(25,24) --> 624,
(25,25) --> 0,
(25,26) --> 479,
(25,27) --> 1941,
(25,28) --> 188,
(25,29) --> 350,
(25,30) --> 736,
(25,31) --> 792,
(25,32) --> 161,
(25,33) --> 547,
(25,34) --> 632,
(25,35) --> 745,
(25,36) --> 552,
(25,37) --> 1607,
(25,38) --> 375,
(25,39) --> 2115,
(25,40) --> 296,
(25,41) --> 392,
(25,42) --> 1547,
(25,43) --> 959,
(25,44) --> 2121,
(25,45) --> 2114,
(25,46) --> 1890,
(25,47) --> 641,
(25,48) --> 676,
(26,1) --> 816,
(26,2) --> 543,
(26,3) --> 456,
(26,4) --> 1143,
(26,5) --> 325,
(26,6) --> 1259,
(26,7) --> 913,
(26,8) --> 1214,
(26,9) --> 723,
(26,10) --> 649,
(26,11) --> 813,
(26,12) --> 552,
(26,13) --> 524,
(26,14) --> 740,
(26,15) --> 293,
(26,16) --> 780,
(26,17) --> 478,
(26,18) --> 723,
(26,19) --> 847,
(26,20) --> 869,
(26,21) --> 388,
(26,22) --> 483,
(26,23) --> 690,
(26,24) --> 325,
(26,25) --> 479,
(26,26) --> 0,
(26,27) --> 1480,
(26,28) --> 435,
(26,29) --> 129,
(26,30) --> 949,
(26,31) --> 708,
(26,32) --> 325,
(26,33) --> 355,
(26,34) --> 1081,
(26,35) --> 492,
(26,36) --> 1007,
(26,37) --> 1137,
(26,38) --> 779,
(26,39) --> 1759,
(26,40) --> 774,
(26,41) --> 291,
(26,42) --> 1148,
(26,43) --> 516,
(26,44) --> 1688,
(26,45) --> 1785,
(26,46) --> 1573,
(26,47) --> 1038,
(26,48) --> 231,
(27,1) --> 664,
(27,2) --> 937,
(27,3) --> 1936,
(27,4) --> 959,
(27,5) --> 1802,
(27,6) --> 2596,
(27,7) --> 2198,
(27,8) --> 2485,
(27,9) --> 2203,
(27,10) --> 2119,
(27,11) --> 882,
(27,12) --> 1745,
(27,13) --> 1897,
(27,14) --> 2049,
(27,15) --> 1240,
(27,16) --> 831,
(27,17) --> 1438,
(27,18) --> 1983,
(27,19) --> 801,
(27,20) --> 1427,
(27,21) --> 1374,
(27,22) --> 1809,
(27,23) --> 2147,
(27,24) --> 1356,
(27,25) --> 1941,
(27,26) --> 1480,
(27,27) --> 0,
(27,28) --> 1829,
(27,29) --> 1603,
(27,30) --> 2339,
(27,31) --> 1524,
(27,32) --> 1780,
(27,33) --> 1673,
(27,34) --> 2421,
(27,35) --> 1315,
(27,36) --> 2394,
(27,37) --> 357,
(27,38) --> 2136,
(27,39) --> 825,
(27,40) --> 2237,
(27,41) --> 1589,
(27,42) --> 579,
(27,43) --> 1204,
(27,44) --> 347,
(27,45) --> 959,
(27,46) --> 940,
(27,47) --> 2336,
(27,48) --> 1266,
(28,1) --> 1178,
(28,2) --> 915,
(28,3) --> 319,
(28,4) --> 1275,
(28,5) --> 331,
(28,6) --> 826,
(28,7) --> 483,
(28,8) --> 780,
(28,9) --> 500,
(28,10) --> 343,
(28,11) --> 1033,
(28,12) --> 269,
(28,13) --> 90,
(28,14) --> 311,
(28,15) --> 726,
(28,16) --> 1038,
(28,17) --> 476,
(28,18) --> 316,
(28,19) --> 1254,
(28,20) --> 818,
(28,21) --> 803,
(28,22) --> 107,
(28,23) --> 594,
(28,24) --> 480,
(28,25) --> 188,
(28,26) --> 435,
(28,27) --> 1829,
(28,28) --> 0,
(28,29) --> 320,
(28,30) --> 919,
(28,31) --> 605,
(28,32) --> 154,
(28,33) --> 623,
(28,34) --> 652,
(28,35) --> 580,
(28,36) --> 582,
(28,37) --> 1508,
(28,38) --> 344,
(28,39) --> 1950,
(28,40) --> 429,
(28,41) --> 242,
(28,42) --> 1402,
(28,43) --> 949,
(28,44) --> 1986,
(28,45) --> 1943,
(28,46) --> 1717,
(28,47) --> 603,
(28,48) --> 582,
(29,1) --> 939,
(29,2) --> 667,
(29,3) --> 337,
(29,4) --> 1213,
(29,5) --> 217,
(29,6) --> 1137,
(29,7) --> 803,
(29,8) --> 1100,
(29,9) --> 604,
(29,10) --> 521,
(29,11) --> 902,
(29,12) --> 482,
(29,13) --> 410,
(29,14) --> 630,
(29,15) --> 420,
(29,16) --> 879,
(29,17) --> 485,
(29,18) --> 623,
(29,19) --> 976,
(29,20) --> 882,
(29,21) --> 484,
(29,22) --> 384,
(29,23) --> 590,
(29,24) --> 369,
(29,25) --> 350,
(29,26) --> 129,
(29,27) --> 1603,
(29,28) --> 320,
(29,29) --> 0,
(29,30) --> 872,
(29,31) --> 699,
(29,32) --> 197,
(29,33) --> 358,
(29,34) --> 957,
(29,35) --> 529,
(29,36) --> 881,
(29,37) --> 1263,
(29,38) --> 660,
(29,39) --> 1849,
(29,40) --> 645,
(29,41) --> 240,
(29,42) --> 1250,
(29,43) --> 631,
(29,44) --> 1802,
(29,45) --> 1867,
(29,46) --> 1650,
(29,47) --> 923,
(29,48) --> 341,
(30,1) --> 1698,
(30,2) --> 1441,
(30,3) --> 604,
(30,4) --> 2085,
(30,5) --> 665,
(30,6) --> 1255,
(30,7) --> 1181,
(30,8) --> 1347,
(30,9) --> 482,
(30,10) --> 652,
(30,11) --> 1763,
(30,12) --> 1188,
(30,13) --> 952,
(30,14) --> 1087,
(30,15) --> 1111,
(30,16) --> 1726,
(30,17) --> 1333,
(30,18) --> 1152,
(30,19) --> 1643,
(30,20) --> 1716,
(30,21) --> 968,
(30,22) --> 1024,
(30,23) --> 326,
(30,24) --> 1241,
(30,25) --> 736,
(30,26) --> 949,
(30,27) --> 2339,
(30,28) --> 919,
(30,29) --> 872,
(30,30) --> 0,
(30,31) --> 1511,
(30,32) --> 815,
(30,33) --> 669,
(30,34) --> 1092,
(30,35) --> 1397,
(30,36) --> 1019,
(30,37) --> 1982,
(30,38) --> 1010,
(30,39) --> 2708,
(30,40) --> 695,
(30,41) --> 1061,
(30,42) --> 2089,
(30,43) --> 1148,
(30,44) --> 2594,
(30,45) --> 2734,
(30,46) --> 2520,
(30,47) --> 1212,
(30,48) --> 1176,
(31,1) --> 983,
(31,2) --> 812,
(31,3) --> 907,
(31,4) --> 742,
(31,5) --> 862,
(31,6) --> 1123,
(31,7) --> 731,
(31,8) --> 985,
(31,9) --> 1104,
(31,10) --> 939,
(31,11) --> 642,
(31,12) --> 355,
(31,13) --> 805,
(31,14) --> 630,
(31,15) --> 862,
(31,16) --> 700,
(31,17) --> 235,
(31,18) --> 543,
(31,19) --> 1157,
(31,20) --> 214,
(31,21) --> 1056,
(31,22) --> 511,
(31,23) --> 1191,
(31,24) --> 413,
(31,25) --> 792,
(31,26) --> 708,
(31,27) --> 1524,
(31,28) --> 605,
(31,29) --> 699,
(31,30) --> 1511,
(31,31) --> 0,
(31,32) --> 697,
(31,33) --> 1051,
(31,34) --> 1018,
(31,35) --> 290,
(31,36) --> 985,
(31,37) --> 1280,
(31,38) --> 743,
(31,39) --> 1427,
(31,40) --> 996,
(31,41) --> 466,
(31,42) --> 987,
(31,43) --> 1110,
(31,44) --> 1584,
(31,45) --> 1395,
(31,46) --> 1166,
(31,47) --> 861,
(31,48) --> 626,
(32,1) --> 1119,
(32,2) --> 848,
(32,3) --> 214,
(32,4) --> 1309,
(32,5) --> 182,
(32,6) --> 943,
(32,7) --> 627,
(32,8) --> 916,
(32,9) --> 455,
(32,10) --> 340,
(32,11) --> 1032,
(32,12) --> 397,
(32,13) --> 238,
(32,14) --> 459,
(32,15) --> 617,
(32,16) --> 1023,
(32,17) --> 525,
(32,18) --> 470,
(32,19) --> 1169,
(32,20) --> 902,
(32,21) --> 655,
(32,22) --> 251,
(32,23) --> 499,
(32,24) --> 473,
(32,25) --> 161,
(32,26) --> 325,
(32,27) --> 1780,
(32,28) --> 154,
(32,29) --> 197,
(32,30) --> 815,
(32,31) --> 697,
(32,32) --> 0,
(32,33) --> 469,
(32,34) --> 761,
(32,35) --> 607,
(32,36) --> 685,
(32,37) --> 1446,
(32,38) --> 472,
(32,39) --> 1969,
(32,40) --> 457,
(32,41) --> 254,
(32,42) --> 1393,
(32,43) --> 823,
(32,44) --> 1963,
(32,45) --> 1975,
(32,46) --> 1752,
(32,47) --> 739,
(32,48) --> 515,
(33,1) --> 1029,
(33,2) --> 776,
(33,3) --> 424,
(33,4) --> 1479,
(33,5) --> 312,
(33,6) --> 1359,
(33,7) --> 1086,
(33,8) --> 1361,
(33,9) --> 630,
(33,10) --> 649,
(33,11) --> 1131,
(33,12) --> 833,
(33,13) --> 706,
(33,14) --> 924,
(33,15) --> 443,
(33,16) --> 1082,
(33,17) --> 827,
(33,18) --> 939,
(33,19) --> 983,
(33,20) --> 1222,
(33,21) --> 318,
(33,22) --> 712,
(33,23) --> 504,
(33,24) --> 680,
(33,25) --> 547,
(33,26) --> 355,
(33,27) --> 1673,
(33,28) --> 623,
(33,29) --> 358,
(33,30) --> 669,
(33,31) --> 1051,
(33,32) --> 469,
(33,33) --> 0,
(33,34) --> 1171,
(33,35) --> 847,
(33,36) --> 1089,
(33,37) --> 1316,
(33,38) --> 919,
(33,39) --> 2063,
(33,40) --> 776,
(33,41) --> 598,
(33,42) --> 1434,
(33,43) --> 507,
(33,44) --> 1926,
(33,45) --> 2101,
(33,46) --> 1898,
(33,47) --> 1187,
(33,48) --> 548,
(34,1) --> 1815,
(34,2) --> 1560,
(34,3) --> 748,
(34,4) --> 1760,
(34,5) --> 864,
(34,6) --> 188,
(34,7) --> 292,
(34,8) --> 260,
(34,9) --> 641,
(34,10) --> 533,
(34,11) --> 1604,
(34,12) --> 713,
(34,13) --> 570,
(34,14) --> 405,
(34,15) --> 1374,
(34,16) --> 1631,
(34,17) --> 1022,
(34,18) --> 482,
(34,19) --> 1905,
(34,20) --> 1210,
(34,21) --> 1420,
(34,22) --> 646,
(34,23) --> 838,
(34,24) --> 1097,
(34,25) --> 632,
(34,26) --> 1081,
(34,27) --> 2421,
(34,28) --> 652,
(34,29) --> 957,
(34,30) --> 1092,
(34,31) --> 1018,
(34,32) --> 761,
(34,33) --> 1171,
(34,34) --> 0,
(34,35) --> 1144,
(34,36) --> 83,
(34,37) --> 2145,
(34,38) --> 317,
(34,39) --> 2445,
(34,40) --> 426,
(34,41) --> 875,
(34,42) --> 1972,
(34,43) --> 1584,
(34,44) --> 2571,
(34,45) --> 2408,
(34,46) --> 2179,
(34,47) --> 194,
(34,48) --> 1231,
(35,1) --> 721,
(35,2) --> 526,
(35,3) --> 817,
(35,4) --> 703,
(35,5) --> 732,
(35,6) --> 1282,
(35,7) --> 883,
(35,8) --> 1171,
(35,9) --> 1058,
(35,10) --> 918,
(35,11) --> 463,
(35,12) --> 432,
(35,13) --> 622,
(35,14) --> 739,
(35,15) --> 586,
(35,16) --> 488,
(35,17) --> 123,
(35,18) --> 669,
(35,19) --> 878,
(35,20) --> 390,
(35,21) --> 794,
(35,22) --> 525,
(35,23) --> 1098,
(35,24) --> 166,
(35,25) --> 745,
(35,26) --> 492,
(35,27) --> 1315,
(35,28) --> 580,
(35,29) --> 529,
(35,30) --> 1397,
(35,31) --> 290,
(35,32) --> 607,
(35,33) --> 847,
(35,34) --> 1144,
(35,35) --> 0,
(35,36) --> 1094,
(35,37) --> 1036,
(35,38) --> 836,
(35,39) --> 1371,
(35,40) --> 1008,
(35,41) --> 354,
(35,42) --> 833,
(35,43) --> 828,
(35,44) --> 1429,
(35,45) --> 1369,
(35,46) --> 1146,
(35,47) --> 1021,
(35,48) --> 352,
(36,1) --> 1753,
(36,2) --> 1494,
(36,3) --> 666,
(36,4) --> 1727,
(36,5) --> 783,
(36,6) --> 271,
(36,7) --> 279,
(36,8) --> 328,
(36,9) --> 562,
(36,10) --> 451,
(36,11) --> 1556,
(36,12) --> 666,
(36,13) --> 503,
(36,14) --> 360,
(36,15) --> 1299,
(36,16) --> 1579,
(36,17) --> 973,
(36,18) --> 443,
(36,19) --> 1836,
(36,20) --> 1184,
(36,21) --> 1341,
(36,22) --> 585,
(36,23) --> 758,
(36,24) --> 1038,
(36,25) --> 552,
(36,26) --> 1007,
(36,27) --> 2394,
(36,28) --> 582,
(36,29) --> 881,
(36,30) --> 1019,
(36,31) --> 985,
(36,32) --> 685,
(36,33) --> 1089,
(36,34) --> 83,
(36,35) --> 1094,
(36,36) --> 0,
(36,37) --> 2083,
(36,38) --> 259,
(36,39) --> 2412,
(36,40) --> 345,
(36,41) --> 811,
(36,42) --> 1925,
(36,43) --> 1507,
(36,44) --> 2523,
(36,45) --> 2380,
(36,46) --> 2151,
(36,47) --> 220,
(36,48) --> 1163,
(37,1) --> 330,
(37,2) --> 598,
(37,3) --> 1592,
(37,4) --> 872,
(37,5) --> 1456,
(37,6) --> 2300,
(37,7) --> 1906,
(37,8) --> 2202,
(37,9) --> 1857,
(37,10) --> 1783,
(37,11) --> 663,
(37,12) --> 1453,
(37,13) --> 1581,
(37,14) --> 1749,
(37,15) --> 887,
(37,16) --> 586,
(37,17) --> 1155,
(37,18) --> 1690,
(37,19) --> 346,
(37,20) --> 1225,
(37,21) --> 1017,
(37,22) --> 1499,
(37,23) --> 1794,
(37,24) --> 1049,
(37,25) --> 1607,
(37,26) --> 1137,
(37,27) --> 357,
(37,28) --> 1508,
(37,29) --> 1263,
(37,30) --> 1982,
(37,31) --> 1280,
(37,32) --> 1446,
(37,33) --> 1316,
(37,34) --> 2145,
(37,35) --> 1036,
(37,36) --> 2083,
(37,37) --> 0,
(37,38) --> 1828,
(37,39) --> 1005,
(37,40) --> 1903,
(37,41) --> 1272,
(37,42) --> 504,
(37,43) --> 849,
(37,44) --> 653,
(37,45) --> 1114,
(37,46) --> 1019,
(37,47) --> 2044,
(37,48) --> 932,
(38,1) --> 1499,
(38,2) --> 1244,
(38,3) --> 521,
(38,4) --> 1479,
(38,5) --> 608,
(38,6) --> 483,
(38,7) --> 178,
(38,8) --> 445,
(38,9) --> 528,
(38,10) --> 362,
(38,11) --> 1298,
(38,12) --> 410,
(38,13) --> 257,
(38,14) --> 115,
(38,15) --> 1070,
(38,16) --> 1320,
(38,17) --> 715,
(38,18) --> 205,
(38,19) --> 1590,
(38,20) --> 949,
(38,21) --> 1137,
(38,22) --> 330,
(38,23) --> 703,
(38,24) --> 781,
(38,25) --> 375,
(38,26) --> 779,
(38,27) --> 2136,
(38,28) --> 344,
(38,29) --> 660,
(38,30) --> 1010,
(38,31) --> 743,
(38,32) --> 472,
(38,33) --> 919,
(38,34) --> 317,
(38,35) --> 836,
(38,36) --> 259,
(38,37) --> 1828,
(38,38) --> 0,
(38,39) --> 2165,
(38,40) --> 330,
(38,41) --> 559,
(38,42) --> 1668,
(38,43) --> 1291,
(38,44) --> 2264,
(38,45) --> 2138,
(38,46) --> 1908,
(38,47) --> 268,
(38,48) --> 917,
(39,1) --> 1107,
(39,2) --> 1304,
(39,3) --> 2172,
(39,4) --> 686,
(39,5) --> 2066,
(39,6) --> 2540,
(39,7) --> 2156,
(39,8) --> 2385,
(39,9) --> 2425,
(39,10) --> 2290,
(39,11) --> 947,
(39,12) --> 1758,
(39,13) --> 1985,
(39,14) --> 2055,
(39,15) --> 1633,
(39,16) --> 982,
(39,17) --> 1475,
(39,18) --> 1969,
(39,19) --> 1286,
(39,20) --> 1239,
(39,21) --> 1836,
(39,22) --> 1885,
(39,23) --> 2439,
(39,24) --> 1497,
(39,25) --> 2115,
(39,26) --> 1759,
(39,27) --> 825,
(39,28) --> 1950,
(39,29) --> 1849,
(39,30) --> 2708,
(39,31) --> 1427,
(39,32) --> 1969,
(39,33) --> 2063,
(39,34) --> 2445,
(39,35) --> 1371,
(39,36) --> 2412,
(39,37) --> 1005,
(39,38) --> 2165,
(39,39) --> 0,
(39,40) --> 2377,
(39,41) --> 1723,
(39,42) --> 636,
(39,43) --> 1720,
(39,44) --> 534,
(39,45) --> 145,
(39,46) --> 290,
(39,47) --> 2281,
(39,48) --> 1531,
(40,1) --> 1576,
(40,2) --> 1306,
(40,3) --> 356,
(40,4) --> 1698,
(40,5) --> 491,
(40,6) --> 609,
(40,7) --> 490,
(40,8) --> 665,
(40,9) --> 220,
(40,10) --> 130,
(40,11) --> 1461,
(40,12) --> 642,
(40,13) --> 396,
(40,14) --> 428,
(40,15) --> 1057,
(40,16) --> 1463,
(40,17) --> 902,
(40,18) --> 510,
(40,19) --> 1621,
(40,20) --> 1210,
(40,21) --> 1056,
(40,22) --> 495,
(40,23) --> 414,
(40,24) --> 905,
(40,25) --> 296,
(40,26) --> 774,
(40,27) --> 2237,
(40,28) --> 429,
(40,29) --> 645,
(40,30) --> 695,
(40,31) --> 996,
(40,32) --> 457,
(40,33) --> 776,
(40,34) --> 426,
(40,35) --> 1008,
(40,36) --> 345,
(40,37) --> 1903,
(40,38) --> 330,
(40,39) --> 2377,
(40,40) --> 0,
(40,41) --> 667,
(40,42) --> 1829,
(40,43) --> 1235,
(40,44) --> 2410,
(40,45) --> 2367,
(40,46) --> 2139,
(40,47) --> 519,
(40,48) --> 972,
(41,1) --> 942,
(41,2) --> 685,
(41,3) --> 467,
(41,4) --> 1057,
(41,5) --> 400,
(41,6) --> 1038,
(41,7) --> 662,
(41,8) --> 966,
(41,9) --> 704,
(41,10) --> 568,
(41,11) --> 795,
(41,12) --> 262,
(41,13) --> 309,
(41,14) --> 492,
(41,15) --> 547,
(41,16) --> 796,
(41,17) --> 273,
(41,18) --> 455,
(41,19) --> 1034,
(41,20) --> 660,
(41,21) --> 679,
(41,22) --> 231,
(41,23) --> 751,
(41,24) --> 238,
(41,25) --> 392,
(41,26) --> 291,
(41,27) --> 1589,
(41,28) --> 242,
(41,29) --> 240,
(41,30) --> 1061,
(41,31) --> 466,
(41,32) --> 254,
(41,33) --> 598,
(41,34) --> 875,
(41,35) --> 354,
(41,36) --> 811,
(41,37) --> 1272,
(41,38) --> 559,
(41,39) --> 1723,
(41,40) --> 667,
(41,41) --> 0,
(41,42) --> 1162,
(41,43) --> 792,
(41,44) --> 1744,
(41,45) --> 1724,
(41,46) --> 1500,
(41,47) --> 796,
(41,48) --> 361,
(42,1) --> 484,
(42,2) --> 668,
(42,3) --> 1583,
(42,4) --> 387,
(42,5) --> 1466,
(42,6) --> 2099,
(42,7) --> 1699,
(42,8) --> 1969,
(42,9) --> 1845,
(42,10) --> 1727,
(42,11) --> 371,
(42,12) --> 1260,
(42,13) --> 1453,
(42,14) --> 1568,
(42,15) --> 999,
(42,16) --> 371,
(42,17) --> 953,
(42,18) --> 1492,
(42,19) --> 689,
(42,20) --> 863,
(42,21) --> 1200,
(42,22) --> 1356,
(42,23) --> 1837,
(42,24) --> 925,
(42,25) --> 1547,
(42,26) --> 1148,
(42,27) --> 579,
(42,28) --> 1402,
(42,29) --> 1250,
(42,30) --> 2089,
(42,31) --> 987,
(42,32) --> 1393,
(42,33) --> 1434,
(42,34) --> 1972,
(42,35) --> 833,
(42,36) --> 1925,
(42,37) --> 504,
(42,38) --> 1668,
(42,39) --> 636,
(42,40) --> 1829,
(42,41) --> 1162,
(42,42) --> 0,
(42,43) --> 1087,
(42,44) --> 600,
(42,45) --> 701,
(42,46) --> 550,
(42,47) --> 1835,
(42,48) --> 917,
(43,1) --> 617,
(43,2) --> 444,
(43,3) --> 882,
(43,4) --> 1252,
(43,5) --> 744,
(43,6) --> 1776,
(43,7) --> 1430,
(43,8) --> 1729,
(43,9) --> 1122,
(43,10) --> 1105,
(43,11) --> 882,
(43,12) --> 1051,
(43,13) --> 1039,
(43,14) --> 1256,
(43,15) --> 252,
(43,16) --> 802,
(43,17) --> 882,
(43,18) --> 1238,
(43,19) --> 503,
(43,20) --> 1207,
(43,21) --> 189,
(43,22) --> 999,
(43,23) --> 1011,
(43,24) --> 702,
(43,25) --> 959,
(43,26) --> 516,
(43,27) --> 1204,
(43,28) --> 949,
(43,29) --> 631,
(43,30) --> 1148,
(43,31) --> 1110,
(43,32) --> 823,
(43,33) --> 507,
(43,34) --> 1584,
(43,35) --> 828,
(43,36) --> 1507,
(43,37) --> 849,
(43,38) --> 1291,
(43,39) --> 1720,
(43,40) --> 1235,
(43,41) --> 792,
(43,42) --> 1087,
(43,43) --> 0,
(43,44) --> 1490,
(43,45) --> 1787,
(43,46) --> 1614,
(43,47) --> 1553,
(43,48) --> 486,
(44,1) --> 896,
(44,2) --> 1157,
(44,3) --> 2139,
(44,4) --> 904,
(44,5) --> 2013,
(44,6) --> 2699,
(44,7) --> 2300,
(44,8) --> 2568,
(44,9) --> 2405,
(44,10) --> 2301,
(44,11) --> 967,
(44,12) --> 1858,
(44,13) --> 2043,
(44,14) --> 2166,
(44,15) --> 1483,
(44,16) --> 940,
(44,17) --> 1550,
(44,18) --> 2091,
(44,19) --> 995,
(44,20) --> 1446,
(44,21) --> 1645,
(44,22) --> 1949,
(44,23) --> 2374,
(44,24) --> 1506,
(44,25) --> 2121,
(44,26) --> 1688,
(44,27) --> 347,
(44,28) --> 1986,
(44,29) --> 1802,
(44,30) --> 2594,
(44,31) --> 1584,
(44,32) --> 1963,
(44,33) --> 1926,
(44,34) --> 2571,
(44,35) --> 1429,
(44,36) --> 2523,
(44,37) --> 653,
(44,38) --> 2264,
(44,39) --> 534,
(44,40) --> 2410,
(44,41) --> 1744,
(44,42) --> 600,
(44,43) --> 1490,
(44,44) --> 0,
(44,45) --> 678,
(44,46) --> 727,
(44,47) --> 2435,
(44,48) --> 1461,
(45,1) --> 1184,
(45,2) --> 1359,
(45,3) --> 2182,
(45,4) --> 668,
(45,5) --> 2082,
(45,6) --> 2493,
(45,7) --> 2117,
(45,8) --> 2333,
(45,9) --> 2428,
(45,10) --> 2285,
(45,11) --> 973,
(45,12) --> 1737,
(45,13) --> 1972,
(45,14) --> 2026,
(45,15) --> 1681,
(45,16) --> 1021,
(45,17) --> 1467,
(45,18) --> 1938,
(45,19) --> 1376,
(45,20) --> 1197,
(45,21) --> 1891,
(45,22) --> 1872,
(45,23) --> 2455,
(45,24) --> 1506,
(45,25) --> 2114,
(45,26) --> 1785,
(45,27) --> 959,
(45,28) --> 1943,
(45,29) --> 1867,
(45,30) --> 2734,
(45,31) --> 1395,
(45,32) --> 1975,
(45,33) --> 2101,
(45,34) --> 2408,
(45,35) --> 1369,
(45,36) --> 2380,
(45,37) --> 1114,
(45,38) --> 2138,
(45,39) --> 145,
(45,40) --> 2367,
(45,41) --> 1724,
(45,42) --> 701,
(45,43) --> 1787,
(45,44) --> 678,
(45,45) --> 0,
(45,46) --> 229,
(45,47) --> 2238,
(45,48) --> 1560,
(46,1) --> 1030,
(46,2) --> 1176,
(46,3) --> 1961,
(46,4) --> 443,
(46,5) --> 1865,
(46,6) --> 2266,
(46,7) --> 1888,
(46,8) --> 2108,
(46,9) --> 2204,
(46,10) --> 2059,
(46,11) --> 768,
(46,12) --> 1508,
(46,13) --> 1744,
(46,14) --> 1796,
(46,15) --> 1489,
(46,16) --> 826,
(46,17) --> 1240,
(46,18) --> 1709,
(46,19) --> 1239,
(46,20) --> 969,
(46,21) --> 1704,
(46,22) --> 1644,
(46,23) --> 2237,
(46,24) --> 1287,
(46,25) --> 1890,
(46,26) --> 1573,
(46,27) --> 940,
(46,28) --> 1717,
(46,29) --> 1650,
(46,30) --> 2520,
(46,31) --> 1166,
(46,32) --> 1752,
(46,33) --> 1898,
(46,34) --> 2179,
(46,35) --> 1146,
(46,36) --> 2151,
(46,37) --> 1019,
(46,38) --> 1908,
(46,39) --> 290,
(46,40) --> 2139,
(46,41) --> 1500,
(46,42) --> 550,
(46,43) --> 1614,
(46,44) --> 727,
(46,45) --> 229,
(46,46) --> 0,
(46,47) --> 2010,
(46,48) --> 1353,
(47,1) --> 1718,
(47,2) --> 1475,
(47,3) --> 781,
(47,4) --> 1600,
(47,5) --> 875,
(47,6) --> 264,
(47,7) --> 138,
(47,8) --> 177,
(47,9) --> 738,
(47,10) --> 595,
(47,11) --> 1472,
(47,12) --> 592,
(47,13) --> 514,
(47,14) --> 303,
(47,15) --> 1326,
(47,16) --> 1508,
(47,17) --> 898,
(47,18) --> 354,
(47,19) --> 1828,
(47,20) --> 1042,
(47,21) --> 1403,
(47,22) --> 567,
(47,23) --> 928,
(47,24) --> 998,
(47,25) --> 641,
(47,26) --> 1038,
(47,27) --> 2336,
(47,28) --> 603,
(47,29) --> 923,
(47,30) --> 1212,
(47,31) --> 861,
(47,32) --> 739,
(47,33) --> 1187,
(47,34) --> 194,
(47,35) --> 1021,
(47,36) --> 220,
(47,37) --> 2044,
(47,38) --> 268,
(47,39) --> 2281,
(47,40) --> 519,
(47,41) --> 796,
(47,42) --> 1835,
(47,43) --> 1553,
(47,44) --> 2435,
(47,45) --> 2238,
(47,46) --> 2010,
(47,47) --> 0,
(47,48) --> 1157,
(48,1) --> 604,
(48,2) --> 335,
(48,3) --> 678,
(48,4) --> 930,
(48,5) --> 552,
(48,6) --> 1398,
(48,7) --> 1023,
(48,8) --> 1327,
(48,9) --> 945,
(48,10) --> 853,
(48,11) --> 588,
(48,12) --> 598,
(48,13) --> 661,
(48,14) --> 853,
(48,15) --> 236,
(48,16) --> 550,
(48,17) --> 396,
(48,18) --> 813,
(48,19) --> 674,
(48,20) --> 741,
(48,21) --> 442,
(48,22) --> 591,
(48,23) --> 921,
(48,24) --> 216,
(48,25) --> 676,
(48,26) --> 231,
(48,27) --> 1266,
(48,28) --> 582,
(48,29) --> 341,
(48,30) --> 1176,
(48,31) --> 626,
(48,32) --> 515,
(48,33) --> 548,
(48,34) --> 1231,
(48,35) --> 352,
(48,36) --> 1163,
(48,37) --> 932,
(48,38) --> 917,
(48,39) --> 1531,
(48,40) --> 972,
(48,41) --> 361,
(48,42) --> 917,
(48,43) --> 486,
(48,44) --> 1461,
(48,45) --> 1560,
(48,46) --> 1353,
(48,47) --> 1157,
(48,48) --> 0)
